(declare-const a Real)
(declare-const b Real)
(declare-const c Real)
(assert (= (+ a b c) 3))
(assert (> a 0))
(assert (> b 0))
(assert (> c 0))
(assert (not (<= (+ 6 (* (pow (* (pow 12 (pow (+ (pow a 2) (pow b 2) (* a b)) (/ 1 2))) (pow (+ (pow a 2) (pow c 2) (* a c)) 6) (pow (+ (pow b 2) (pow c 2) (* b c)) 6)) (pow (+ 24 (pow (+ (pow a 2) (pow b 2) (* a b)) (/ 1 2))) -1)) (+ -24 (* -1 (pow (+ (pow a 2) (pow b 2) (* a b)) (/ 1 2))))) (* (+ 1 (pow (+ a b c) 2)) (+ a b c))) 0)))
(check-sat)
(get-model)
(exit)